c Read 3984 clauses.  1494 variables
c Breaking ties randomly with seed 1
c Placed 3984 terms into 696 buckets.
c Bucket 34 Reduced to term with 7 nodes
c Bucket 68 Reduced to term with 7 nodes
c Bucket 102 Reduced to term with 11 nodes
c Bucket 136 Reduced to term with 9 nodes
c Bucket 170 Reduced to term with 9 nodes
c Bucket 204 Reduced to term with 9 nodes
c Bucket 238 Reduced to term with 11 nodes
c Bucket 272 Reduced to term with 7 nodes
c Bucket 306 Reduced to term with 7 nodes
c Bucket 340 Reduced to term with 13 nodes
c Bucket 374 Reduced to term with 9 nodes
c Bucket 408 Reduced to term with 7 nodes
c Bucket 442 Reduced to term with 23 nodes
c Bucket 476 Reduced to term with 11 nodes
c Bucket 510 Reduced to term with 7 nodes
c Bucket 544 Reduced to term with 21 nodes
c Bucket 578 Reduced to term with 9 nodes
c Bucket 612 Reduced to term with 9 nodes
c Bucket 646 Reduced to term with 17 nodes
c Bucket 680 Reduced to term with 19 nodes
c Bucket 714 Reduced to term with 35 nodes
c Bucket 748 Reduced to term with 61 nodes
c Bucket 782 Reduced to term with 21 nodes
c Bucket 816 Reduced to term with 11 nodes
c Bucket 850 Reduced to term with 619 nodes
c Garbage collection #1: 2000003 nodes / 1932380 free / 42100 previously freed  / 0.0s / 0.0s total
c Bucket 884 Reduced to term with 619 nodes
c Garbage collection #2: 2000003 nodes / 1868527 free / 34690 previously freed  / 0.0s / 0.0s total
s UNSATISFIABLE

c Cache statistics
c ----------------
c Unique Access:  267642
c Unique Chain:   9088
c Unique Hit:     53014
c Unique Miss:    212839
c => Hit rate =   0.20
c Operator Hits:  347741
c Operator Miss:  377233
c => Hit rate =   0.48
c Swap count =    0

c BDD statistics
c ----------------
c Total BDD nodes produced: 212839
c Input variables: 1494
c Input clauses: 3984
c Total clauses: 1378875
c Unused+non-BDD clause IDs: 18877 (1.4%)
c Maximum live clauses: 752764
c Deleted clauses: 1374891
c Final live clauses: 3984
c Total variables: 214331
c Elapsed seconds: 1.774
-rw-r--r--  1 bryant  staff  72642319 Mar 10 23:07 chew-500-123456.lrat
c parsed a formula with 1494 variables and 3984 clauses
c VERIFIED
c allocated 1024 3489115 113449
c Added clauses = 1378875.  Deleted clauses = 834315.  Max live clauses = 752764
c verification time = 0.85 secs
